&FORCE_EVAL
  METHOD Quickstep
  &DFT
    BASIS_SET_FILE_NAME    /mnt/lustre/a2fs-work3/work/e89/e89/nco24/nacl-h2o/MLP-training/RPA/BASIS
    POTENTIAL_FILE_NAME    /mnt/lustre/a2fs-work3/work/e89/e89/nco24/nacl-h2o/MLP-training/RPA/POTENTIAL
    WFN_RESTART_FILE_NAME  ./NaCl-H2O-PBE-TZ-RESTART.wfn
    &MGRID
     CUTOFF      1200
     REL_CUTOFF   50
    &END MGRID
    &QS
      METHOD GPW
      EPS_DEFAULT 1.0E-12
    &END QS
    &SCF
      SCF_GUESS  RESTART
      EPS_SCF    1.0E-6
      MAX_SCF    30
      &OT
        MINIMIZER       CG
        PRECONDITIONER  FULL_ALL
      &END
      &OUTER_SCF
        EPS_SCF  1.0E-6
        MAX_SCF  20
      &END
      &PRINT
        &RESTART OFF
        &END
      &END
    &END SCF
    &XC
      &XC_FUNCTIONAL PBE
      &END XC_FUNCTIONAL
      &WF_CORRELATION
        &RI_RPA
          MINIMAX_QUADRATURE
          RPA_NUM_QUAD_POINTS    20
          &HF
            FRACTION  1.0
            &SCREENING
              EPS_SCHWARZ          1.0E-8
              SCREEN_ON_INITIAL_P  TRUE
            &END SCREENING
            &INTERACTION_POTENTIAL
              POTENTIAL_TYPE TRUNCATED
              CUTOFF_RADIUS  4.9
              T_C_G_DATA  ./t_c_g.dat
            &END
            &MEMORY
              MAX_MEMORY 0
            &END
          &END HF
        &END
        &INTEGRALS
          &WFC_GPW
            CUTOFF      300
            REL_CUTOFF  50
            EPS_FILTER  1.0E-12
            EPS_GRID    1.0E-8
          &END
        &END INTEGRALS
        MEMORY    12000
        NUMBER_PROC  1
      &END
    &END XC
  &END DFT
  &SUBSYS
     &CELL
      PERIODIC XYZ
    &END CELL
    &KIND H
      BASIS_SET         cc-TZ
      BASIS_SET RI_AUX  RI-cc-TZ
      POTENTIAL         GTH-HF-q1
    &END KIND
    &KIND O
      BASIS_SET         cc-TZ
      BASIS_SET RI_AUX  RI-cc-TZ
      POTENTIAL         GTH-HF-q6
    &END KIND
    &KIND NA
      BASIS_SET         cc-TZ
      BASIS_SET RI_AUX  RI-cc-TZ
      POTENTIAL         GTH-HF-q9
    &END KIND
    &KIND CL
      BASIS_SET         cc-TZ
      BASIS_SET RI_AUX  RI-cc-TZ
      POTENTIAL         GTH-HF-q7
    &END KIND
    &TOPOLOGY
      COORD_FILE_NAME  init.xyz
      COORD_FILE_FORMAT xyz
      MULTIPLE_UNIT_CELL  1 1 1
    &END TOPOLOGY
  &END SUBSYS
  &PRINT
    &FORCES ON
    &END FORCES
  &END PRINT
&END FORCE_EVAL

